%mem=16GB
%nprocshared=4
# opt freq ub3lyp/6-31G(d,p) scf=(maxcycles=1024)

something title

0 1
N -1.66889 -0.55460 -0.04347
B -0.91262 0.66340 -0.02355
N 1.66889 -0.55460 0.04347
B 0.91262 0.66340 0.02355
H 2.62877 -0.56200 -0.25788
H -1.48570 1.70478 0.07971
H -0.03884 0.79278 -0.97628
H -1.27025 -1.47663 -0.11877
H -2.62877 -0.56200 0.25789
H 1.27025 -1.47663 0.11877
H 0.03884 0.79278 0.97627
H 1.48570 1.70478 -0.07971

