%mem=16GB
%nprocshared=4
#opt freq ub3lyp/6-31G(d,p) scf=(maxcycles=1024)

something title

0 1
N -1.67795 -0.54583 -0.05019
B -0.90596 0.66549 -0.01459
N 1.67795 -0.54583 0.05019
B 0.90596 0.66549 0.01459
H 2.64236 -0.52367 -0.23979
H -1.47879 1.71352 0.03900
H -0.01846 0.79029 -0.97412
H -1.27466 -1.47677 0.02841
H -2.64236 -0.52367 0.23980
H 1.27466 -1.47677 -0.02841
H 0.01846 0.79029 0.97412
H 1.47879 1.71352 -0.03900

