%mem=16GB
%nprocshared=4
#opt ub3lyp/6-31G(d,p) geom(modredundant, gic) scf=(maxcycles=1024)

something title

0 1
N 2.356638 0.540675 0.364488
B 2.215478 -0.766970 0.759980
N -0.289713 -1.293028 -1.108395
B 0.238030 -1.642749 0.205426
H 0.305854 -1.099065 -1.855140
H 2.846471 -1.205773 1.641884
H 1.691357 -1.563229 0.035192
H 1.737331 1.005798 -0.299832
H 3.117167 1.116539 0.695592
H -1.033174 -0.646601 -1.147720
H 0.079360 -0.867458 1.105711
H 0.167339 -2.755888 0.556211

bond0(freeze)=B(2,7)
bond1(freeze)=B(2,11)
bond2(freeze)=B(4,7)
bond3(freeze)=B(4,11)

