%mem=16GB
%nprocshared=4
#opt freq ub3lyp/6-31G(d,p) scf=(maxcycles=1024)

something title

0 1
N -1.63834 -0.55617 -0.03771
B -0.93930 0.68966 -0.05202
N 1.63828 -0.55621 0.03788
B 0.93958 0.68949 0.05198
H 2.54572 -0.65865 -0.39130
H -1.52049 1.70896 0.18689
H -0.09675 0.83667 -0.98041
H -1.24180 -1.42330 -0.36843
H -2.54585 -0.65832 0.39151
H 1.24104 -1.42346 0.36750
H 0.09627 0.83625 0.97982
H 1.52090 1.70879 -0.18657

