%mem=16GB
%nprocshared=4
#ub3lyp/6-31G(d,p) scf=(maxcycles=1024)

something title 

0 1 
N 1.194859 0.147760 0.733621
B 2.053402 0.097835 -0.498704
N 0.686112 -2.305105 0.496874
B 0.398678 -1.014532 -0.102118
H 1.618203 -2.689701 0.397297
H 2.988084 -0.642432 -0.440084
H 2.093305 1.059425 -1.174749
H 0.628559 0.984810 0.881027
H 1.520880 -0.210790 1.637383
H 0.015861 -3.057691 0.447110
H -0.756527 -0.726691 -0.195969
H 0.983956 -0.818554 -1.232852

