%mem=16GB
%nprocshared=4
#ub3lyp/6-31G(d,p) scf=(maxcycles=1024)

something title 

0 1 
N 1.246661 0.193652 0.739092
B 2.108669 0.143991 -0.435990
N 0.693516 -2.314283 0.453707
B 0.376984 -1.062633 -0.197138
H 1.613728 -2.736433 0.315900
H 3.004279 -0.638320 -0.422867
H 2.133425 1.085123 -1.159663
H 0.651420 1.002164 0.887148
H 1.494382 -0.248649 1.616987
H -0.014377 -3.015978 0.602205
H -0.765160 -0.718224 -0.138109
H 0.881843 -0.866074 -1.312436

