%mem=16GB
%nprocshared=4
#ub3lyp/6-31G(d,p) scf=(maxcycles=1024)

something title 

0 1 
N 1.189103 0.142661 0.733013
B 2.047261 0.092707 -0.505672
N 0.685289 -2.304085 0.501670
B 0.401088 -1.009187 -0.091560
H 1.618700 -2.684509 0.406341
H 2.986284 -0.642889 -0.441997
H 2.088847 1.056570 -1.176425
H 0.626019 0.982881 0.880346
H 1.523824 -0.206583 1.639649
H 0.019221 -3.062326 0.429878
H -0.755568 -0.727632 -0.202398
H 0.995302 -0.813274 -1.224009

