%mem=16GB
%nprocshared=4
#freq ub3lyp/6-31G(d,p) scf=(maxcycles=1024)

something title

0 1
N 1.307175 0.262684 0.759125
B 2.156023 0.184785 -0.388295
N 0.683833 -2.337767 0.379639
B 0.298318 -1.145946 -0.301091
H 1.625525 -2.730092 0.279885
H 3.005349 -0.635249 -0.402672
H 2.155481 1.085573 -1.154388
H 0.717122 1.063103 0.912450
H 1.479476 -0.253597 1.603088
H 0.002836 -2.988251 0.752773
H -0.803163 -0.767408 -0.121837
H 0.797395 -0.913500 -1.369840

