%mem=16GB
%nprocshared=4
#ub3lyp/6-31G(d,p) scf=(maxcycles=1024)

something title 

0 1 
N 2.372055 0.551316 0.385370
B 2.283640 -0.761756 0.758295
N -0.311392 -1.281039 -1.103377
B 0.175906 -1.646322 0.211022
H 0.263068 -1.220364 -1.879177
H 2.934172 -1.198199 1.627647
H 1.694394 -1.512262 0.075334
H 1.741653 0.996253 -0.284151
H 3.120956 1.139472 0.699890
H -0.987568 -0.566147 -1.161942
H -0.039583 -0.900541 1.105249
H 0.184836 -2.778160 0.519238

