%mem=16GB
%nprocshared=4
#ub3lyp/6-31G(d,p) scf=(maxcycles=1024)

something title 

0 1 
N 2.309176 0.526739 0.329511
B 1.992353 -0.733577 0.833996
N -0.219989 -1.285068 -1.115689
B 0.404223 -1.676580 0.135095
H 0.359098 -0.803588 -1.802292
H 2.629362 -1.208568 1.689897
H 1.712732 -1.723332 -0.067960
H 1.715684 1.062877 -0.290907
H 3.137739 1.029597 0.631598
H -1.128204 -0.902965 -1.127755
H 0.453064 -0.805675 1.095777
H 0.066901 -2.657609 0.642126

