%mem=16GB
%nprocshared=4
#ub3lyp/6-31G(d,p) scf=(maxcycles=1024)

something title 

0 1 
N 2.304308 0.527144 0.328780
B 1.968177 -0.725334 0.848294
N -0.212547 -1.279879 -1.115642
B 0.418824 -1.684418 0.122708
H 0.356911 -0.780883 -1.798934
H 2.612250 -1.206854 1.695229
H 1.717918 -1.740062 -0.076548
H 1.712651 1.071430 -0.284418
H 3.142990 1.019088 0.620088
H -1.133528 -0.930102 -1.128028
H 0.492121 -0.803244 1.093652
H 0.052062 -2.644636 0.648217

